Version identifier: 22.1.0.0 | 2022-03-09 | 1a383f8ce
CPXPARAM_Read_DataCheck                          1
CPXPARAM_Threads                                 1
CPXPARAM_TimeLimit                               3600
Tried aggregator 2 times.
MIP Presolve eliminated 479 rows and 42 columns.
MIP Presolve modified 3971 coefficients.
Aggregator did 32 substitutions.
Reduced MIP has 920 rows, 166 columns, and 5710 nonzeros.
Reduced MIP has 117 binaries, 0 generals, 0 SOSs, and 0 indicators.
Presolve time = 0.03 sec. (10.10 ticks)
Found incumbent of value 164.073694 after 0.05 sec. (15.12 ticks)
Probing fixed 4 vars, tightened 0 bounds.
Probing time = 0.00 sec. (1.46 ticks)
Tried aggregator 1 time.
Detecting symmetries...
MIP Presolve eliminated 6 rows and 4 columns.
Reduced MIP has 914 rows, 162 columns, and 5645 nonzeros.
Reduced MIP has 113 binaries, 0 generals, 0 SOSs, and 0 indicators.
Presolve time = 0.01 sec. (2.79 ticks)
Probing time = 0.00 sec. (1.28 ticks)
Clique table members: 259.
MIP emphasis: balance optimality and feasibility.
MIP search method: dynamic search.
Parallel mode: none, using 1 thread.
Root relaxation solution time = 0.01 sec. (2.60 ticks)

        Nodes                                         Cuts/
   Node  Left     Objective  IInf  Best Integer    Best Bound    ItCnt     Gap

*     0+    0                          164.0737      100.0569            39.02%
      0     0      100.0569    36      164.0737      100.0569       87   39.02%
      0     0      100.0569    23      164.0737     Cuts: 116      178   39.02%
      0     0      100.0569    26      164.0737     Cuts: 137      316   39.02%
      0     0      100.6060    28      164.0737     Cuts: 125      398   38.68%
      0     0      100.7824    24      164.0737     Cuts: 129      459   38.57%
      0     0      100.8228    30      164.0737     Cuts: 125      516   38.55%
Detecting symmetries...
      0     0      100.8455    49      164.0737      Cuts: 83      566   38.54%
      0     0      101.0109    57      164.0737     Cuts: 149      592   38.44%
      0     0      101.0371    59      164.0737      Cuts: 72      612   38.42%
      0     0      101.0628    55      164.0737      Cuts: 23      632   38.40%
      0     0      101.0771    54      164.0737      Cuts: 11      641   38.40%
      0     0      101.0786    55      164.0737      Cuts: 11      651   38.39%
*     0+    0                          113.2252      101.0786            10.73%
Detecting symmetries...
      0     2      101.0881    36      113.2252      101.1109      651   10.70%
Elapsed time = 0.50 sec. (189.50 ticks, tree = 0.01 MB, solutions = 2)
    251    94      105.9631    17      113.2252      105.6363     5615    6.70%
*   332    49      integral     0      113.2058      110.7747     7251    2.15%

GUB cover cuts applied:  2
Clique cuts applied:  1
Cover cuts applied:  106
Implied bound cuts applied:  24
Flow cuts applied:  4
Mixed integer rounding cuts applied:  45
Zero-half cuts applied:  3
Gomory fractional cuts applied:  1

Root node processing (before b&c):
  Real time             =    0.50 sec. (189.50 ticks)
Sequential b&c:
  Real time             =    0.78 sec. (384.02 ticks)
                          ------------
Total (root+branch&cut) =    1.28 sec. (573.53 ticks)
